(set-option :produce-models true)
(set-logic ALL)
(declare-const GEN1 (_ BitVec 4))
(declare-const BAV2 Bool)
(declare-const || (_ BitVec 4))
(assert (= || GEN1))
(assert (= BAV2 (= || GEN1)))
(check-sat)
(get-value (||))